\* BargeLoading *\
Maximize
TotalProfit: 200 Load_1 + 40 Load_2 + 90 Load_3 + 80 Load_4 + 105 Load_5
 + 100 Load_6 + 140 Load_7
Subject To
Capacity: 10 Load_1 + 8 Load_2 + 6 Load_3 + 9 Load_4 + 15 Load_5 + 10 Load_6
 + 12 Load_7 <= 1500
_C1: Load_1 <= 12
_C2: Load_2 <= 31
_C3: Load_3 <= 20
_C4: Load_4 <= 25
_C5: Load_5 <= 50
_C6: Load_6 <= 40
_C7: Load_7 <= 60
Bounds
 0 <= Load_1
 0 <= Load_2
 0 <= Load_3
 0 <= Load_4
 0 <= Load_5
 0 <= Load_6
 0 <= Load_7
Generals
Load_1
Load_2
Load_3
Load_4
Load_5
Load_6
Load_7
End
